p tw 40 98
0 1
0 5
0 19
0 6
0 21
0 34
0 37
0 8
0 14
1 29
1 21
1 22
1 39
2 3
2 4
2 13
2 24
2 25
2 30
2 6
2 37
3 19
3 17
4 21
4 38
4 26
4 27
5 12
5 24
5 16
6 7
6 13
6 19
6 10
6 26
7 29
8 9
9 18
9 27
10 11
10 22
10 15
11 20
11 23
11 27
11 13
11 22
11 21
11 15
11 33
12 23
12 24
12 33
12 17
13 33
13 27
13 29
13 17
14 15
14 19
15 27
15 36
15 39
15 37
15 35
16 17
16 23
17 26
17 35
17 21
18 19
19 36
19 34
20 26
20 34
21 22
21 27
21 24
21 26
21 31
23 35
23 34
24 32
25 26
25 39
27 34
27 30
27 32
27 31
27 39
28 29
28 30
28 38
30 31
31 32
33 35
34 39
37 38
